feasible solution found by trivial heuristic after 0.9 seconds, objective value 8.582000e+03
presolving:
(round 1, fast)       10755 del vars, 101318 del conss, 0 add conss, 0 chg bounds, 6 chg sides, 0 chg coeffs, 0 upgd conss, 0 impls, 0 clqs
(round 2, fast)       10761 del vars, 101318 del conss, 0 add conss, 0 chg bounds, 6 chg sides, 0 chg coeffs, 0 upgd conss, 0 impls, 0 clqs
   (1.9s) running MILP presolver
   (2.0s) MILP presolver found nothing
(round 3, exhaustive) 10761 del vars, 101318 del conss, 0 add conss, 0 chg bounds, 6 chg sides, 0 chg coeffs, 562 upgd conss, 0 impls, 0 clqs
   (2.5s) probing: 51/1500 (3.4%) - 0 fixings, 0 aggregations, 0 implications, 0 bound changes
   (2.5s) probing aborted: 50/50 successive totally useless probings
   (3.3s) symmetry computation started: requiring (bin +, int -, cont +), (fixed: bin -, int +, cont -)
   (3.4s) no symmetry present
presolving (4 rounds: 4 fast, 2 medium, 2 exhaustive):
 10761 deleted vars, 101318 deleted constraints, 0 added constraints, 0 tightened bounds, 0 added holes, 6 changed sides, 0 changed coefficients
 0 implications, 0 cliques
presolved problem has 1500 variables (1500 bin, 0 int, 0 impl, 0 cont) and 562 constraints
    562 constraints of type <logicor>
transformed objective value is always integral (scale: 1)
Presolving Time: 3.17

 time | node  | left  |LP iter|LP it/n|mem/heur|mdpt |vars |cons |rows |cuts |sepa|confs|strbr|  dualbound   | primalbound  |  gap   | compl. 
t 3.9s|     1 |     0 |     0 |     - | trivial|   0 |1500 | 562 |   0 |   0 |  0 |   0 |   0 | 0.000000e+00 | 5.820000e+03 |    Inf | unknown
p 4.1s|     1 |     0 |     0 |     - |   locks|   0 |1500 | 562 | 562 |   0 |  0 |   0 |   0 | 0.000000e+00 | 1.400000e+01 |    Inf | unknown
  8.0s|     1 |     0 |  5414 |     - |   735M |   0 |1500 | 562 | 562 |   0 |  0 |   0 |   0 | 1.396292e+00 | 1.400000e+01 | 902.66%| unknown
r 8.0s|     1 |     0 |  5414 |     - |rounding|   0 |1500 | 562 | 562 |   0 |  0 |   0 |   0 | 1.396292e+00 | 1.300000e+01 | 831.04%| unknown
r 8.0s|     1 |     0 |  5414 |     - |shifting|   0 |1500 | 562 | 562 |   0 |  0 |   0 |   0 | 1.396292e+00 | 1.200000e+01 | 759.42%| unknown
i 8.0s|     1 |     0 |  5414 |     - |  oneopt|   0 |1500 | 562 | 562 |   0 |  0 |   0 |   0 | 1.396292e+00 | 4.000000e+00 | 186.47%| unknown
  8.2s|     1 |     0 |  5414 |     - |   736M |   0 |1500 | 562 | 562 |   0 |  2 |   0 |   0 | 1.396292e+00 | 4.000000e+00 | 186.47%| unknown
  8.2s|     1 |     0 |  5414 |     - |   736M |   0 |1500 | 562 | 562 |   0 |  2 |   0 |   0 | 1.396292e+00 | 4.000000e+00 | 186.47%| unknown
L25.5s|     1 |     0 | 14957 |     - |    rens|   0 |1500 | 562 | 562 |   0 |  4 |   0 |   0 | 1.396292e+00 | 3.000000e+00 | 114.85%| unknown
(run 1, node 1) restarting after 1045 global fixings of integer variables

presolving:
(round 1, fast)       1045 del vars, 0 del conss, 0 add conss, 0 chg bounds, 0 chg sides, 428823 chg coeffs, 0 upgd conss, 0 impls, 0 clqs
   (26.5s) running MILP presolver
   (26.6s) MILP presolver found nothing
presolving (2 rounds: 2 fast, 1 medium, 1 exhaustive):
 1045 deleted vars, 0 deleted constraints, 0 added constraints, 0 tightened bounds, 0 added holes, 0 changed sides, 428823 changed coefficients
 0 implications, 0 cliques
presolved problem has 455 variables (455 bin, 0 int, 0 impl, 0 cont) and 562 constraints
    562 constraints of type <logicor>
transformed objective value is always integral (scale: 1)
Presolving Time: 4.32
transformed 97/100 original solutions to the transformed problem space

 time | node  | left  |LP iter|LP it/n|mem/heur|mdpt |vars |cons |rows |cuts |sepa|confs|strbr|  dualbound   | primalbound  |  gap   | compl. 
 27.4s|     1 |     0 | 15892 |     - |   749M |   0 | 455 | 562 | 562 |   0 |  0 |   0 |   0 | 1.396292e+00 | 3.000000e+00 | 114.85%| unknown
 27.4s|     1 |     0 | 15892 |     - |   749M |   0 | 455 | 562 | 562 |   0 |  0 |   0 |   0 | 1.396292e+00 | 3.000000e+00 | 114.85%| unknown
 27.8s|     1 |     0 | 16238 |     - |   749M |   0 | 455 | 562 | 563 |   1 |  1 |   0 |   0 | 1.403610e+00 | 3.000000e+00 | 113.73%| unknown
 28.7s|     1 |     0 | 17680 |     - |   749M |   0 | 455 | 562 | 564 |   2 |  2 |   0 |   0 | 2.000000e+00 | 3.000000e+00 |  50.00%| unknown
(run 2, node 1) restarting after 234 global fixings of integer variables

(restart) converted 2 cuts from the global cut pool into linear constraints

presolving:
(round 1, fast)       234 del vars, 0 del conss, 0 add conss, 0 chg bounds, 0 chg sides, 96075 chg coeffs, 0 upgd conss, 0 impls, 0 clqs
   (34.2s) running MILP presolver
   (34.2s) MILP presolver found nothing
(round 2, exhaustive) 234 del vars, 0 del conss, 0 add conss, 0 chg bounds, 0 chg sides, 96075 chg coeffs, 1 upgd conss, 0 impls, 0 clqs
presolving (3 rounds: 3 fast, 2 medium, 2 exhaustive):
 234 deleted vars, 0 deleted constraints, 0 added constraints, 0 tightened bounds, 0 added holes, 0 changed sides, 96075 changed coefficients
 0 implications, 0 cliques
presolved problem has 221 variables (221 bin, 0 int, 0 impl, 0 cont) and 564 constraints
      1 constraints of type <knapsack>
      1 constraints of type <linear>
    562 constraints of type <logicor>
transformed objective value is always integral (scale: 1)
Presolving Time: 5.01
transformed 66/100 original solutions to the transformed problem space

 time | node  | left  |LP iter|LP it/n|mem/heur|mdpt |vars |cons |rows |cuts |sepa|confs|strbr|  dualbound   | primalbound  |  gap   | compl. 
 34.8s|     1 |     0 | 29372 |     - |   755M |   0 | 221 | 564 | 563 |   0 |  0 |   0 |   0 | 2.000000e+00 | 3.000000e+00 |  50.00%| unknown
 36.0s|     1 |     0 | 30901 |     - |   755M |   0 | 221 | 564 | 564 |   1 |  1 |   0 |   0 | 2.000000e+00 | 3.000000e+00 |  50.00%| unknown
 36.4s|     1 |     0 | 31671 |     - |   755M |   0 | 221 | 564 | 565 |   2 |  2 |   0 |   0 | 2.000000e+00 | 3.000000e+00 |  50.00%| unknown
 36.7s|     1 |     0 | 32680 |     - |   756M |   0 | 221 | 564 | 566 |   3 |  3 |   0 |   0 | 2.000000e+00 | 3.000000e+00 |  50.00%| unknown
 37.0s|     1 |     0 | 33443 |     - |   756M |   0 | 221 | 564 | 567 |   4 |  4 |   0 |   0 | 2.000000e+00 | 3.000000e+00 |  50.00%| unknown
 37.2s|     1 |     0 | 34197 |     - |   756M |   0 | 221 | 564 | 568 |   5 |  5 |   0 |   0 | 2.000000e+00 | 3.000000e+00 |  50.00%| unknown
 37.9s|     1 |     0 | 35213 |     - |   756M |   0 | 221 | 564 | 569 |   6 |  6 |   0 |   0 | 2.000000e+00 | 3.000000e+00 |  50.00%| unknown
 38.6s|     1 |     0 | 36143 |     - |   757M |   0 | 221 | 564 | 570 |   7 |  7 |   0 |   0 | 2.000000e+00 | 3.000000e+00 |  50.00%| unknown
 39.2s|     1 |     0 | 37094 |     - |   759M |   0 | 221 | 564 | 571 |   8 |  8 |   0 |   0 | 2.000000e+00 | 3.000000e+00 |  50.00%| unknown
 39.6s|     1 |     0 | 37837 |     - |   760M |   0 | 221 | 564 | 572 |   9 |  9 |   0 |   0 | 2.000000e+00 | 3.000000e+00 |  50.00%| unknown
 40.0s|     1 |     0 | 38597 |     - |   761M |   0 | 221 | 564 | 573 |  10 | 10 |   0 |   0 | 2.000000e+00 | 3.000000e+00 |  50.00%| unknown
 61.3s|     1 |     2 | 38604 |     - |   761M |   0 | 221 | 564 | 573 |  10 | 12 |   0 |  75 | 2.000000e+00 | 3.000000e+00 |  50.00%| unknown
 91.8s|   100 |     1 |131211 |1120.4 |   762M |  50 | 221 | 564 | 567 |  14 |  0 |   0 |  75 | 2.000000e+00 | 3.000000e+00 |  50.00%|  68.33%
  109s|   200 |     1 |196166 | 886.1 |   763M | 100 | 221 | 564 | 567 |  14 |  0 |   0 |  75 | 2.000000e+00 | 3.000000e+00 |  50.00%|  68.34%
  116s|   300 |     1 |233379 | 715.4 |   764M | 150 | 221 | 564 | 567 |  14 |  0 |   0 |  75 | 2.000000e+00 | 3.000000e+00 |  50.00%|  68.34%

SCIP Status        : problem is solved [optimal solution found]
Solving Time (sec) : 117.31
Solving Nodes      : 397 (total of 399 nodes in 3 runs)
Primal Bound       : +3.00000000000000e+00 (575 solutions)
Dual Bound         : +3.00000000000000e+00
Gap                : 0.00 %
Solve Status: optimal
Solve Time: 117.35 seconds
